p cnf 705 902
-487 604 0
-604 487 0
-606 -607 0
-491 606 0
-492 607 0
-606 491 0
-607 492 0
-609 -610 0
-494 609 0
-495 610 0
-609 494 0
-610 495 0
-612 -613 0
-612 -614 0
-613 -614 0
-497 612 0
-498 613 0
-499 614 0
-612 497 0
-613 498 0
-614 499 0
-616 -617 0
-501 616 0
-502 617 0
-616 501 0
-617 502 0
-619 629 630 631 632 633 0
-629 -630 0
-629 -631 0
-629 -632 0
-629 -633 0
-630 -631 0
-630 -632 0
-630 -633 0
-631 -632 0
-631 -633 0
-632 -633 0
-619 634 635 636 637 638 639 640 0
-634 -635 0
-634 -636 0
-634 -637 0
-634 -638 0
-634 -639 0
-634 -640 0
-635 -636 0
-635 -637 0
-635 -638 0
-635 -639 0
-635 -640 0
-636 -637 0
-636 -638 0
-636 -639 0
-636 -640 0
-637 -638 0
-637 -639 0
-637 -640 0
-638 -639 0
-638 -640 0
-639 -640 0
-619 641 642 643 644 645 646 647 648 0
-641 -642 0
-641 -643 0
-641 -644 0
-641 -645 0
-641 -646 0
-641 -647 0
-641 -648 0
-642 -643 0
-642 -644 0
-642 -645 0
-642 -646 0
-642 -647 0
-642 -648 0
-643 -644 0
-643 -645 0
-643 -646 0
-643 -647 0
-643 -648 0
-644 -645 0
-644 -646 0
-644 -647 0
-644 -648 0
-645 -646 0
-645 -647 0
-645 -648 0
-646 -647 0
-646 -648 0
-647 -648 0
-619 627 0
-619 624 0
-619 626 0
-620 629 630 631 632 633 0
-629 -630 0
-629 -631 0
-629 -632 0
-629 -633 0
-630 -631 0
-630 -632 0
-630 -633 0
-631 -632 0
-631 -633 0
-632 -633 0
-620 634 635 636 637 638 639 640 0
-634 -635 0
-634 -636 0
-634 -637 0
-634 -638 0
-634 -639 0
-634 -640 0
-635 -636 0
-635 -637 0
-635 -638 0
-635 -639 0
-635 -640 0
-636 -637 0
-636 -638 0
-636 -639 0
-636 -640 0
-637 -638 0
-637 -639 0
-637 -640 0
-638 -639 0
-638 -640 0
-639 -640 0
-620 641 642 643 644 645 646 647 648 0
-641 -642 0
-641 -643 0
-641 -644 0
-641 -645 0
-641 -646 0
-641 -647 0
-641 -648 0
-642 -643 0
-642 -644 0
-642 -645 0
-642 -646 0
-642 -647 0
-642 -648 0
-643 -644 0
-643 -645 0
-643 -646 0
-643 -647 0
-643 -648 0
-644 -645 0
-644 -646 0
-644 -647 0
-644 -648 0
-645 -646 0
-645 -647 0
-645 -648 0
-646 -647 0
-646 -648 0
-647 -648 0
-620 625 0
-620 627 0
-620 628 0
-619 -620 0
-619 -621 0
-619 -622 0
-620 -621 0
-620 -622 0
-621 -622 0
-642 -624 448 0
-647 -624 442 0
-648 -624 456 0
-643 -624 436 0
-646 -624 460 0
-644 -624 444 0
-645 -624 453 0
-641 -624 469 0
-629 -625 469 0
-632 -625 442 0
-631 -625 436 0
-630 -625 460 0
-633 -625 444 0
-629 -626 558 0
-632 -626 545 0
-630 -626 543 0
-633 -626 565 0
-631 -626 556 0
-632 -634 -627 547 0
-632 -639 -627 554 0
-632 -635 -627 534 0
-630 -638 -627 535 0
-632 -640 -627 536 0
-629 -635 -627 537 0
-631 -635 -627 550 0
-633 -638 -627 566 0
-631 -640 -627 539 0
-632 -637 -627 541 0
-631 -638 -627 559 0
-629 -638 -627 551 0
-633 -639 -627 542 0
-633 -635 -627 567 0
-629 -639 -627 568 0
-632 -636 -627 560 0
-630 -635 -627 561 0
-633 -634 -627 544 0
-633 -636 -627 562 0
-630 -640 -627 553 0
-633 -640 -627 546 0
-632 -638 -627 564 0
-629 -640 -627 570 0
-630 -636 -627 571 0
-629 -636 -627 572 0
-641 -628 558 0
-646 -628 543 0
-642 -628 569 0
-647 -628 545 0
-645 -628 549 0
-644 -628 565 0
-643 -628 556 0
-648 -628 540 0
-619 -630 -637 0
-619 -630 -639 0
-619 -630 -634 0
-619 -631 -637 0
-619 -631 -639 0
-619 -631 -634 0
-619 -631 -636 0
-619 -629 -637 0
-619 -629 -634 0
-619 -633 -637 0
-619 -630 -646 0
-619 -630 -644 0
-619 -630 -647 0
-619 -630 -641 0
-619 -631 -646 0
-619 -631 -644 0
-619 -631 -647 0
-619 -631 -643 0
-619 -631 -641 0
-619 -632 -647 0
-619 -629 -644 0
-619 -629 -647 0
-619 -629 -641 0
-619 -633 -644 0
-619 -633 -647 0
-620 -630 -637 0
-620 -630 -639 0
-620 -630 -634 0
-620 -631 -637 0
-620 -631 -639 0
-620 -631 -634 0
-620 -631 -636 0
-620 -629 -637 0
-620 -629 -634 0
-620 -633 -637 0
-620 -630 -646 0
-620 -630 -644 0
-620 -630 -647 0
-620 -630 -641 0
-620 -631 -646 0
-620 -631 -644 0
-620 -631 -647 0
-620 -631 -643 0
-620 -631 -641 0
-620 -632 -647 0
-620 -629 -644 0
-620 -629 -647 0
-620 -629 -641 0
-620 -633 -644 0
-620 -633 -647 0
-528 622 0
-529 620 0
-530 619 0
-527 621 0
-619 530 0
-620 529 0
-621 527 0
-622 528 0
-649 651 0
-650 -651 0
-534 652 -619 -632 635 0
-534 652 -619 632 0
-534 652 -620 -632 635 0
-534 652 -620 632 0
-534 652 619 620 0
534 -652 -619 -632 642 0
534 -652 -619 632 0
534 -652 -620 -632 642 0
534 -652 -620 632 0
534 -652 619 620 0
-535 653 -619 -630 638 0
-535 653 -619 630 0
-535 653 -620 -630 638 0
-535 653 -620 630 0
-535 653 619 620 0
535 -653 -619 -630 645 0
535 -653 -619 630 0
535 -653 -620 -630 645 0
535 -653 -620 630 0
535 -653 619 620 0
-436 654 -619 643 0
-436 654 -620 631 0
-436 654 619 620 0
436 -654 -619 631 0
436 -654 -620 636 0
436 -654 619 620 0
-536 655 -619 -632 640 0
-536 655 -619 632 0
-536 655 -620 -632 640 0
-536 655 -620 632 0
-536 655 619 620 0
536 -655 -619 -632 648 0
536 -655 -619 632 0
536 -655 -620 -632 648 0
536 -655 -620 632 0
536 -655 619 620 0
-537 656 -619 -629 635 0
-537 656 -619 629 0
-537 656 -620 -629 635 0
-537 656 -620 629 0
-537 656 619 620 0
537 -656 -619 -629 642 0
537 -656 -619 629 0
537 -656 -620 -629 642 0
537 -656 -620 629 0
537 -656 619 620 0
-539 657 -619 -631 640 0
-539 657 -619 631 0
-539 657 -620 -631 640 0
-539 657 -620 631 0
-539 657 619 620 0
539 -657 -619 -631 648 0
539 -657 -619 631 0
539 -657 -620 -631 648 0
539 -657 -620 631 0
539 -657 619 620 0
-540 658 -620 648 0
-540 658 620 0
540 -658 -619 640 0
540 -658 619 0
-541 659 -619 -632 637 0
-541 659 -619 632 0
-541 659 -620 -632 637 0
-541 659 -620 632 0
-541 659 619 620 0
541 -659 -619 -632 644 0
541 -659 -619 632 0
541 -659 -620 -632 644 0
541 -659 -620 632 0
541 -659 619 620 0
-442 660 -619 647 0
-442 660 -620 632 0
-442 660 619 620 0
442 -660 -619 632 0
442 -660 619 0
-542 661 -619 -633 639 0
-542 661 -619 633 0
-542 661 -620 -633 639 0
-542 661 -620 633 0
-542 661 619 620 0
542 -661 -619 -633 646 0
542 -661 -619 633 0
542 -661 -620 -633 646 0
542 -661 -620 633 0
542 -661 619 620 0
-543 662 -619 630 0
-543 662 -620 646 0
-543 662 619 620 0
543 -662 -619 639 0
543 -662 -620 630 0
543 -662 619 620 0
-444 663 -619 644 0
-444 663 -620 633 0
-444 663 619 620 0
444 -663 -619 633 0
444 -663 -620 637 0
444 -663 619 620 0
-544 664 -619 -633 634 0
-544 664 -619 633 0
-544 664 -620 -633 634 0
-544 664 -620 633 0
-544 664 619 620 0
544 -664 -619 -633 641 0
544 -664 -619 633 0
544 -664 -620 -633 641 0
544 -664 -620 633 0
544 -664 619 620 0
-545 665 -619 632 0
-545 665 -620 647 0
-545 665 619 620 0
545 -665 -620 632 0
545 -665 620 0
-546 666 -619 -633 640 0
-546 666 -619 633 0
-546 666 -620 -633 640 0
-546 666 -620 633 0
-546 666 619 620 0
546 -666 -619 -633 648 0
546 -666 -619 633 0
546 -666 -620 -633 648 0
546 -666 -620 633 0
546 -666 619 620 0
-547 667 -619 -632 634 0
-547 667 -619 632 0
-547 667 -620 -632 634 0
-547 667 -620 632 0
-547 667 619 620 0
547 -667 -619 -632 641 0
547 -667 -619 632 0
547 -667 -620 -632 641 0
547 -667 -620 632 0
547 -667 619 620 0
-448 668 -619 642 0
-448 668 619 0
448 -668 -620 635 0
448 -668 620 0
-549 669 -620 645 0
-549 669 620 0
549 -669 -619 638 0
549 -669 619 0
-550 670 -619 -631 635 0
-550 670 -619 631 0
-550 670 -620 -631 635 0
-550 670 -620 631 0
-550 670 619 620 0
550 -670 -619 -631 642 0
550 -670 -619 631 0
550 -670 -620 -631 642 0
550 -670 -620 631 0
550 -670 619 620 0
-551 671 -619 -629 638 0
-551 671 -619 629 0
-551 671 -620 -629 638 0
-551 671 -620 629 0
-551 671 619 620 0
551 -671 -619 -629 645 0
551 -671 -619 629 0
551 -671 -620 -629 645 0
551 -671 -620 629 0
551 -671 619 620 0
-453 672 -619 645 0
-453 672 619 0
453 -672 -620 638 0
453 -672 620 0
-553 673 -619 -630 640 0
-553 673 -619 630 0
-553 673 -620 -630 640 0
-553 673 -620 630 0
-553 673 619 620 0
553 -673 -619 -630 648 0
553 -673 -619 630 0
553 -673 -620 -630 648 0
553 -673 -620 630 0
553 -673 619 620 0
-554 674 -619 -632 639 0
-554 674 -619 632 0
-554 674 -620 -632 639 0
-554 674 -620 632 0
-554 674 619 620 0
554 -674 -619 -632 646 0
554 -674 -619 632 0
554 -674 -620 -632 646 0
554 -674 -620 632 0
554 -674 619 620 0
-456 675 -619 648 0
-456 675 619 0
456 -675 -620 640 0
456 -675 620 0
-556 676 -619 631 0
-556 676 -620 643 0
-556 676 619 620 0
556 -676 -619 636 0
556 -676 -620 631 0
556 -676 619 620 0
-558 677 -619 629 0
-558 677 -620 641 0
-558 677 619 620 0
558 -677 -619 634 0
558 -677 -620 629 0
558 -677 619 620 0
-559 678 -619 -631 638 0
-559 678 -619 631 0
-559 678 -620 -631 638 0
-559 678 -620 631 0
-559 678 619 620 0
559 -678 -619 -631 645 0
559 -678 -619 631 0
559 -678 -620 -631 645 0
559 -678 -620 631 0
559 -678 619 620 0
-460 679 -619 646 0
-460 679 -620 630 0
-460 679 619 620 0
460 -679 -619 630 0
460 -679 -620 639 0
460 -679 619 620 0
-560 680 -619 -632 636 0
-560 680 -619 632 0
-560 680 -620 -632 636 0
-560 680 -620 632 0
-560 680 619 620 0
560 -680 -619 -632 643 0
560 -680 -619 632 0
560 -680 -620 -632 643 0
560 -680 -620 632 0
560 -680 619 620 0
-561 681 -619 -630 635 0
-561 681 -619 630 0
-561 681 -620 -630 635 0
-561 681 -620 630 0
-561 681 619 620 0
561 -681 -619 -630 642 0
561 -681 -619 630 0
561 -681 -620 -630 642 0
561 -681 -620 630 0
561 -681 619 620 0
-562 682 -619 -633 636 0
-562 682 -619 633 0
-562 682 -620 -633 636 0
-562 682 -620 633 0
-562 682 619 620 0
562 -682 -619 -633 643 0
562 -682 -619 633 0
562 -682 -620 -633 643 0
562 -682 -620 633 0
562 -682 619 620 0
-564 683 -619 -632 638 0
-564 683 -619 632 0
-564 683 -620 -632 638 0
-564 683 -620 632 0
-564 683 619 620 0
564 -683 -619 -632 645 0
564 -683 -619 632 0
564 -683 -620 -632 645 0
564 -683 -620 632 0
564 -683 619 620 0
-565 684 -619 633 0
-565 684 -620 644 0
-565 684 619 620 0
565 -684 -619 637 0
565 -684 -620 633 0
565 -684 619 620 0
-566 685 -619 -633 638 0
-566 685 -619 633 0
-566 685 -620 -633 638 0
-566 685 -620 633 0
-566 685 619 620 0
566 -685 -619 -633 645 0
566 -685 -619 633 0
566 -685 -620 -633 645 0
566 -685 -620 633 0
566 -685 619 620 0
-567 686 -619 -633 635 0
-567 686 -619 633 0
-567 686 -620 -633 635 0
-567 686 -620 633 0
-567 686 619 620 0
567 -686 -619 -633 642 0
567 -686 -619 633 0
567 -686 -620 -633 642 0
567 -686 -620 633 0
567 -686 619 620 0
-568 687 -619 -629 639 0
-568 687 -619 629 0
-568 687 -620 -629 639 0
-568 687 -620 629 0
-568 687 619 620 0
568 -687 -619 -629 646 0
568 -687 -619 629 0
568 -687 -620 -629 646 0
568 -687 -620 629 0
568 -687 619 620 0
-569 688 -620 642 0
-569 688 620 0
569 -688 -619 635 0
569 -688 619 0
-469 689 -619 641 0
-469 689 -620 629 0
-469 689 619 620 0
469 -689 -619 629 0
469 -689 -620 634 0
469 -689 619 620 0
-570 690 -619 -629 640 0
-570 690 -619 629 0
-570 690 -620 -629 640 0
-570 690 -620 629 0
-570 690 619 620 0
570 -690 -619 -629 648 0
570 -690 -619 629 0
570 -690 -620 -629 648 0
570 -690 -620 629 0
570 -690 619 620 0
-571 691 -619 -630 636 0
-571 691 -619 630 0
-571 691 -620 -630 636 0
-571 691 -620 630 0
-571 691 619 620 0
571 -691 -619 -630 643 0
571 -691 -619 630 0
571 -691 -620 -630 643 0
571 -691 -620 630 0
571 -691 619 620 0
-572 692 -619 -629 636 0
-572 692 -619 629 0
-572 692 -620 -629 636 0
-572 692 -620 629 0
-572 692 619 620 0
572 -692 -619 -629 643 0
572 -692 -619 629 0
572 -692 -620 -629 643 0
572 -692 -620 629 0
572 -692 619 620 0
-649 -650 0
-642 693 -668 0
-647 693 -660 0
-648 693 -675 0
-643 693 -654 0
-646 693 -679 0
-644 693 -663 0
-645 693 -672 0
-641 693 -689 0
-632 -641 -694 667 0
-632 -646 -694 674 0
-632 -642 -694 652 0
-630 -645 -694 653 0
-632 -648 -694 655 0
-629 -642 -694 656 0
-631 -642 -694 670 0
-633 -645 -694 685 0
-631 -648 -694 657 0
-632 -644 -694 659 0
-631 -645 -694 678 0
-629 -645 -694 671 0
-633 -646 -694 661 0
-633 -642 -694 686 0
-629 -646 -694 687 0
-632 -643 -694 680 0
-630 -642 -694 681 0
-633 -641 -694 664 0
-633 -643 -694 682 0
-630 -648 -694 673 0
-633 -648 -694 666 0
-632 -645 -694 683 0
-629 -648 -694 690 0
-630 -643 -694 691 0
-629 -643 -694 692 0
-634 -695 677 0
-639 -695 662 0
-635 -695 688 0
-638 -695 669 0
-637 -695 684 0
-636 -695 676 0
-640 -695 658 0
-635 -696 668 0
-640 -696 675 0
-636 -696 654 0
-639 -696 679 0
-637 -696 663 0
-638 -696 672 0
-634 -696 689 0
-629 697 -689 0
-632 697 -660 0
-631 697 -654 0
-630 697 -679 0
-633 697 -663 0
-629 -697 689 0
-632 -697 660 0
-631 -697 654 0
-630 -697 679 0
-633 -697 663 0
-629 698 -677 0
-632 698 -665 0
-630 698 -662 0
-633 698 -684 0
-631 698 -676 0
-629 -698 677 0
-632 -698 665 0
-630 -698 662 0
-633 -698 684 0
-631 -698 676 0
-632 -634 699 -667 0
-632 -639 699 -674 0
-632 -635 699 -652 0
-630 -638 699 -653 0
-632 -640 699 -655 0
-629 -635 699 -656 0
-631 -635 699 -670 0
-633 -638 699 -685 0
-631 -640 699 -657 0
-632 -637 699 -659 0
-631 -638 699 -678 0
-629 -638 699 -671 0
-633 -639 699 -661 0
-633 -635 699 -686 0
-629 -639 699 -687 0
-632 -636 699 -680 0
-630 -635 699 -681 0
-633 -634 699 -664 0
-633 -636 699 -682 0
-630 -640 699 -673 0
-633 -640 699 -666 0
-632 -638 699 -683 0
-629 -640 699 -690 0
-630 -636 699 -691 0
-629 -636 699 -692 0
-641 700 -677 0
-646 700 -662 0
-642 700 -688 0
-647 700 -665 0
-645 700 -669 0
-644 700 -684 0
-643 700 -676 0
-648 700 -658 0
-619 697 0
-701 634 -641 0
-701 -634 641 0
-701 635 -642 0
-701 -635 642 0
-701 636 -643 0
-701 -636 643 0
-701 637 -644 0
-701 -637 644 0
-701 638 -645 0
-701 -638 645 0
-701 639 -646 0
-701 -639 646 0
-701 640 -648 0
-701 -640 648 0
-634 -641 701 0
-635 -642 701 0
-636 -643 701 0
-637 -644 701 0
-638 -645 701 0
-639 -646 701 0
-640 -648 701 0
-647 -701 0
-619 -699 701 0
-702 629 -634 0
-702 -629 634 0
-702 630 -639 0
-702 -630 639 0
-702 631 -636 0
-702 -631 636 0
-702 633 -637 0
-702 -633 637 0
-629 -634 702 0
-630 -639 702 0
-631 -636 702 0
-633 -637 702 0
-632 -702 0
-638 -702 0
-635 -702 0
-640 -702 0
-619 -698 702 0
-619 694 0
-703 641 -629 0
-703 -641 629 0
-703 646 -630 0
-703 -646 630 0
-703 643 -631 0
-703 -643 631 0
-703 647 -632 0
-703 -647 632 0
-703 644 -633 0
-703 -644 633 0
-641 -629 703 0
-646 -630 703 0
-643 -631 703 0
-647 -632 703 0
-644 -633 703 0
-645 -703 0
-642 -703 0
-648 -703 0
-704 641 -634 0
-704 -641 634 0
-704 642 -635 0
-704 -642 635 0
-704 643 -636 0
-704 -643 636 0
-704 644 -637 0
-704 -644 637 0
-704 645 -638 0
-704 -645 638 0
-704 646 -639 0
-704 -646 639 0
-704 648 -640 0
-704 -648 640 0
-641 -634 704 0
-642 -635 704 0
-643 -636 704 0
-644 -637 704 0
-645 -638 704 0
-646 -639 704 0
-648 -640 704 0
-647 -704 0
-619 -693 703 0
-619 695 0
-620 -697 702 0
-620 -699 701 0
-620 696 0
-620 694 0
-620 -700 703 0
-620 698 0
-528 649 0
-529 650 0
-530 650 0
-527 649 0
-650 529 530 0
-649 528 527 0
-532 151 -651 0
532 -151 -651 0
-533 152 -651 0
533 -152 -651 0
-652 154 -651 0
652 -154 -651 0
-653 155 -651 0
653 -155 -651 0
-654 385 -651 0
654 -385 -651 0
-655 156 -651 0
655 -156 -651 0
-656 158 -651 0
656 -158 -651 0
-538 159 -651 0
538 -159 -651 0
-657 160 -651 0
657 -160 -651 0
-658 602 -651 0
658 -602 -651 0
-659 10 -651 0
659 -10 -651 0
-660 162 -651 0
660 -162 -651 0
-661 163 -651 0
661 -163 -651 0
-662 270 -651 0
662 -270 -651 0
-663 386 -651 0
663 -386 -651 0
-664 11 -651 0
664 -11 -651 0
-665 271 -651 0
665 -271 -651 0
-666 167 -651 0
666 -167 -651 0
-667 170 -651 0
667 -170 -651 0
-668 171 -651 0
668 -171 -651 0
-548 172 -651 0
548 -172 -651 0
-669 273 -651 0
669 -273 -651 0
-670 12 -651 0
670 -12 -651 0
-671 174 -651 0
671 -174 -651 0
-552 274 -651 0
552 -274 -651 0
-672 387 -651 0
672 -387 -651 0
-673 176 -651 0
673 -176 -651 0
-674 153 -651 0
674 -153 -651 0
-675 388 -651 0
675 -388 -651 0
-555 157 -651 0
555 -157 -651 0
-676 267 -651 0
676 -267 -651 0
-557 268 -651 0
557 -268 -651 0
-677 269 -651 0
677 -269 -651 0
-678 161 -651 0
678 -161 -651 0
-679 389 -651 0
679 -389 -651 0
-680 164 -651 0
680 -164 -651 0
-681 165 -651 0
681 -165 -651 0
-682 166 -651 0
682 -166 -651 0
-563 168 -651 0
563 -168 -651 0
-683 169 -651 0
683 -169 -651 0
-684 272 -651 0
684 -272 -651 0
-685 173 -651 0
685 -173 -651 0
-686 175 -651 0
686 -175 -651 0
-687 13 -651 0
687 -13 -651 0
-688 603 -651 0
688 -603 -651 0
-689 390 -651 0
689 -390 -651 0
-690 177 -651 0
690 -177 -651 0
-691 14 -651 0
691 -14 -651 0
-692 178 -651 0
692 -178 -651 0
-600 705 0
-705 600 0
a 651 0
